; benchmark generated from python API
(set-info :status unknown)
(declare-fun strlen_85_64 () (_ BitVec 64))
(declare-fun args_1_8 () (_ BitVec 8))
(declare-fun strlen_83_64 () (_ BitVec 64))
(declare-fun strncmp_ret_84_32 () (_ BitVec 32))
(declare-fun strncmp_ret_86_32 () (_ BitVec 32))
(declare-fun filesize_file_0_/proc/self/loginuid_88_64 () (_ BitVec 64))
(declare-fun syscall_stub_ioctl_94_32 () (_ BitVec 32))
(declare-fun syscall_stub_newfstatat_119_64 () (_ BitVec 64))
(declare-fun syscall_stub_readlink_158_64 () (_ BitVec 64))
(declare-fun strlen_842_64 () (_ BitVec 64))
(declare-fun mem_7fffffffffef420_168_64 () (_ BitVec 64))
(declare-fun syscall_stub_newfstatat_187_64 () (_ BitVec 64))
(declare-fun mem_7fffffffffef038_272_64 () (_ BitVec 64))
(declare-fun mem_7fffffffffeefa8_273_64 () (_ BitVec 64))
(declare-fun mem_7fffffffffeefa0_293_64 () (_ BitVec 64))
(declare-fun mem_7fffffffffef030_294_64 () (_ BitVec 64))
(declare-fun mem_7fffffffffef048_341_32 () (_ BitVec 32))
(declare-fun mem_7fffffffffeefc8_390_64 () (_ BitVec 64))
(declare-fun mem_7fffffffffef058_391_64 () (_ BitVec 64))
(declare-fun access_2116_32 () (_ BitVec 32))
(declare-fun access_3089_32 () (_ BitVec 32))
(declare-fun strlen_5074_64 () (_ BitVec 64))
(declare-fun mem_2c_5073_264 () (_ BitVec 264))
(assert
 (let ((?x751 (bvadd (_ bv576460752303357826 64) strlen_85_64)))
 (let (($x69 (= (_ bv0 8) args_1_8)))
 (let ((?x46 (ite $x69 (_ bv576460752303357826 64) (_ bv576460752303357827 64))))
 (= ?x46 ?x751)))))
(assert
 (let ((?x101 (bvadd (_ bv576460752303357826 64) strlen_83_64)))
 (let (($x69 (= (_ bv0 8) args_1_8)))
 (let ((?x46 (ite $x69 (_ bv576460752303357826 64) (_ bv576460752303357827 64))))
 (= ?x46 ?x101)))))
(assert
 (let (($x104 (bvule (_ bv2 64) strlen_83_64)))
 (let (($x48 (= (_ bv2 64) strlen_83_64)))
 (let (($x122 (or $x48 $x104)))
 (let (($x123 (not $x122)))
 (let (($x57 (= (_ bv45 8) args_1_8)))
 (let (($x121 (not $x57)))
 (or $x121 $x123))))))))
(assert
 (= (_ bv1 32) strncmp_ret_84_32))
(assert
 (= (_ bv1 32) strncmp_ret_86_32))
(assert
 true)
(assert
 (let ((?x1236 ((_ extract 3 0) filesize_file_0_/proc/self/loginuid_88_64)))
 (let (($x1210 (bvsge (_ bv0 64) filesize_file_0_/proc/self/loginuid_88_64)))
 (let ((?x99 (ite $x1210 (_ bv0 4) ?x1236)))
 (let (($x1110 (bvule ?x99 (_ bv12 4))))
 (let (($x119703 (not $x1110)))
 (let ((?x1214 ((_ extract 63 63) filesize_file_0_/proc/self/loginuid_88_64)))
 (let (($x116245 (= (_ bv1 1) ?x1214)))
 (let (($x119835 (not $x116245)))
 (let ((?x1229 ((_ extract 63 4) filesize_file_0_/proc/self/loginuid_88_64)))
 (let (($x523 (= (_ bv0 60) ?x1229)))
 (let (($x516 (or $x1210 $x523)))
 (let (($x119942 (not $x516)))
 (let (($x119586 (or $x119942 $x119835 $x1210 $x119703)))
 (let (($x116912 (not $x119586)))
 (let (($x116860 (= (_ bv0 64) filesize_file_0_/proc/self/loginuid_88_64)))
 (let (($x117248 (or $x116860 $x1210)))
 (let (($x119482 (not $x117248)))
 (let (($x47155 (or $x119942 $x119703 $x119482)))
 (let (($x118344 (not $x47155)))
 (or $x118344 $x116912)))))))))))))))))))))
(assert
 (let (($x1210 (bvsge (_ bv0 64) filesize_file_0_/proc/self/loginuid_88_64)))
 (let ((?x1217 (ite $x1210 (_ bv0 64) filesize_file_0_/proc/self/loginuid_88_64)))
 (let ((?x1236 ((_ extract 3 0) filesize_file_0_/proc/self/loginuid_88_64)))
 (let ((?x99 (ite $x1210 (_ bv0 4) ?x1236)))
 (let (($x1110 (bvule ?x99 (_ bv12 4))))
 (let ((?x1229 ((_ extract 63 4) filesize_file_0_/proc/self/loginuid_88_64)))
 (let (($x523 (= (_ bv0 60) ?x1229)))
 (let (($x516 (or $x1210 $x523)))
 (let (($x975 (and $x516 $x1110)))
 (let ((?x1169 (ite $x975 ?x1217 (_ bv12 64))))
 (bvule ?x1169 (_ bv18446744073709547520 64)))))))))))))
(assert
 (let ((?x48102 ((_ extract 31 31) syscall_stub_ioctl_94_32)))
 (= (_ bv0 1) ?x48102)))
(assert
 (let (($x3051 (= (_ bv0 32) syscall_stub_ioctl_94_32)))
 (not $x3051)))
(assert
 (let ((?x52872 ((_ extract 31 0) syscall_stub_newfstatat_119_64)))
 (bvule ?x52872 (_ bv4294963200 32))))
(assert
 (= (_ bv13 64) syscall_stub_readlink_158_64))
(assert
 (let ((?x441255 (bvadd (_ bv576460752303354917 64) strlen_842_64)))
 (let ((?x119659 ((_ extract 63 56) mem_7fffffffffef420_168_64)))
 (let (($x441241 (= (_ bv0 8) ?x119659)))
 (let ((?x114108 (ite $x441241 (_ bv576460752303354919 64) (_ bv576460752303354920 64))))
 (let ((?x113788 ((_ extract 55 48) mem_7fffffffffef420_168_64)))
 (let (($x441239 (= (_ bv0 8) ?x113788)))
 (let ((?x40247 (ite $x441239 (_ bv576460752303354918 64) ?x114108)))
 (let ((?x68316 ((_ extract 47 40) mem_7fffffffffef420_168_64)))
 (let (($x441237 (= (_ bv0 8) ?x68316)))
 (let ((?x3236 (ite $x441237 (_ bv576460752303354917 64) ?x40247)))
 (= ?x3236 ?x441255))))))))))))
(assert
 (let ((?x46334 ((_ extract 7 0) mem_7fffffffffef420_168_64)))
 (= (_ bv47 8) ?x46334)))
(assert
 (let ((?x441444 (bvadd (_ bv1 64) strlen_842_64)))
 (let ((?x442010 ((_ extract 63 3) ?x441444)))
 (= (_ bv0 61) ?x442010))))
(assert
 (let ((?x441926 ((_ extract 2 0) strlen_842_64)))
 (let ((?x441872 (bvadd (_ bv1 3) ?x441926)))
 (bvule ?x441872 (_ bv4 3)))))
(assert
 (let ((?x441444 (bvadd (_ bv1 64) strlen_842_64)))
 (let (($x441412 (bvule (_ bv31 64) strlen_842_64)))
 (let (($x441420 (bvule strlen_842_64 (_ bv18446744073709551614 64))))
 (let (($x441918 (and $x441420 $x441412)))
 (let ((?x442099 (ite $x441918 (_ bv32 64) ?x441444)))
 (bvule (_ bv1 64) ?x442099)))))))
(assert
 (let (($x441412 (bvule (_ bv31 64) strlen_842_64)))
 (let (($x441584 (not $x441412)))
 (let (($x441420 (bvule strlen_842_64 (_ bv18446744073709551614 64))))
 (let (($x441580 (not $x441420)))
 (or $x441580 $x441584))))))
(assert
 (let ((?x118302 ((_ extract 31 0) syscall_stub_newfstatat_187_64)))
 (bvule ?x118302 (_ bv4294963200 32))))
(assert
 (= mem_7fffffffffeefa8_273_64 mem_7fffffffffef038_272_64))
(assert
 (= mem_7fffffffffef030_294_64 mem_7fffffffffeefa0_293_64))
(assert
 (let ((?x276820 ((_ extract 15 12) mem_7fffffffffef048_341_32)))
 (= (_ bv2 4) ?x276820)))
(assert
 (= mem_7fffffffffef058_391_64 mem_7fffffffffeefc8_390_64))
(assert
 (= (_ bv0 32) access_2116_32))
(assert
 (= (_ bv4294967295 32) access_3089_32))
(assert
 (let ((?x1267557 (bvadd (_ bv44 64) strlen_5074_64)))
 (let ((?x1231190 ((_ extract 15 8) mem_2c_5073_264)))
 (let (($x1267357 (= (_ bv0 8) ?x1231190)))
 (let ((?x1228154 (ite $x1267357 (_ bv75 64) (_ bv0 64))))
 (let ((?x1267355 ((_ extract 23 16) mem_2c_5073_264)))
 (let (($x1267356 (= (_ bv0 8) ?x1267355)))
 (let ((?x1230935 (ite $x1267356 (_ bv74 64) ?x1228154)))
 (let ((?x1265578 ((_ extract 31 24) mem_2c_5073_264)))
 (let (($x1265576 (= (_ bv0 8) ?x1265578)))
 (let ((?x1250072 (ite $x1265576 (_ bv73 64) ?x1230935)))
 (let ((?x1265577 ((_ extract 39 32) mem_2c_5073_264)))
 (let (($x1267127 (= (_ bv0 8) ?x1265577)))
 (let ((?x1267439 (ite $x1267127 (_ bv72 64) ?x1250072)))
 (let ((?x1250042 ((_ extract 47 40) mem_2c_5073_264)))
 (let (($x1250263 (= (_ bv0 8) ?x1250042)))
 (let ((?x1250041 (ite $x1250263 (_ bv71 64) ?x1267439)))
 (let ((?x1267183 ((_ extract 55 48) mem_2c_5073_264)))
 (let (($x1267170 (= (_ bv0 8) ?x1267183)))
 (let ((?x1267251 (ite $x1267170 (_ bv70 64) ?x1250041)))
 (let ((?x1267474 ((_ extract 63 56) mem_2c_5073_264)))
 (let (($x900048 (= (_ bv0 8) ?x1267474)))
 (let ((?x1231070 (ite $x900048 (_ bv69 64) ?x1267251)))
 (let ((?x1267433 ((_ extract 71 64) mem_2c_5073_264)))
 (let (($x1267210 (= (_ bv0 8) ?x1267433)))
 (let ((?x1267245 (ite $x1267210 (_ bv68 64) ?x1231070)))
 (let ((?x1267425 ((_ extract 79 72) mem_2c_5073_264)))
 (let (($x1267405 (= (_ bv0 8) ?x1267425)))
 (let ((?x1267193 (ite $x1267405 (_ bv67 64) ?x1267245)))
 (let ((?x1267422 ((_ extract 87 80) mem_2c_5073_264)))
 (let (($x1267420 (= (_ bv0 8) ?x1267422)))
 (let ((?x1250068 (ite $x1267420 (_ bv66 64) ?x1267193)))
 (let ((?x1267419 ((_ extract 95 88) mem_2c_5073_264)))
 (let (($x1267418 (= (_ bv0 8) ?x1267419)))
 (let ((?x1250267 (ite $x1267418 (_ bv65 64) ?x1250068)))
 (let ((?x1267417 ((_ extract 103 96) mem_2c_5073_264)))
 (let (($x1267416 (= (_ bv0 8) ?x1267417)))
 (let ((?x1219767 (ite $x1267416 (_ bv64 64) ?x1250267)))
 (let ((?x1267415 ((_ extract 111 104) mem_2c_5073_264)))
 (let (($x1265239 (= (_ bv0 8) ?x1267415)))
 (let ((?x1265036 (ite $x1265239 (_ bv63 64) ?x1219767)))
 (let ((?x1250060 ((_ extract 119 112) mem_2c_5073_264)))
 (let (($x480897 (= (_ bv0 8) ?x1250060)))
 (let ((?x1267403 (ite $x480897 (_ bv62 64) ?x1265036)))
 (let ((?x1249915 ((_ extract 127 120) mem_2c_5073_264)))
 (let (($x1267124 (= (_ bv0 8) ?x1249915)))
 (let ((?x1267162 (ite $x1267124 (_ bv61 64) ?x1267403)))
 (let ((?x1267176 ((_ extract 135 128) mem_2c_5073_264)))
 (let (($x1231090 (= (_ bv0 8) ?x1267176)))
 (let ((?x1250249 (ite $x1231090 (_ bv60 64) ?x1267162)))
 (let ((?x1267256 ((_ extract 143 136) mem_2c_5073_264)))
 (let (($x1267199 (= (_ bv0 8) ?x1267256)))
 (let ((?x1250301 (ite $x1267199 (_ bv59 64) ?x1250249)))
 (let ((?x1267157 ((_ extract 151 144) mem_2c_5073_264)))
 (let (($x1267107 (= (_ bv0 8) ?x1267157)))
 (let ((?x1267213 (ite $x1267107 (_ bv58 64) ?x1250301)))
 (let ((?x1249946 ((_ extract 159 152) mem_2c_5073_264)))
 (let (($x1265573 (= (_ bv0 8) ?x1249946)))
 (let ((?x1267291 (ite $x1265573 (_ bv57 64) ?x1267213)))
 (let ((?x1250048 ((_ extract 167 160) mem_2c_5073_264)))
 (let (($x1231002 (= (_ bv0 8) ?x1250048)))
 (let ((?x1265569 (ite $x1231002 (_ bv56 64) ?x1267291)))
 (let ((?x1230572 ((_ extract 175 168) mem_2c_5073_264)))
 (let (($x1250085 (= (_ bv0 8) ?x1230572)))
 (let ((?x1267209 (ite $x1250085 (_ bv55 64) ?x1265569)))
 (let ((?x1267318 ((_ extract 183 176) mem_2c_5073_264)))
 (let (($x1267232 (= (_ bv0 8) ?x1267318)))
 (let ((?x1226024 (ite $x1267232 (_ bv54 64) ?x1267209)))
 (let ((?x1267315 ((_ extract 191 184) mem_2c_5073_264)))
 (let (($x1267152 (= (_ bv0 8) ?x1267315)))
 (let ((?x1249934 (ite $x1267152 (_ bv53 64) ?x1226024)))
 (let ((?x1265604 ((_ extract 199 192) mem_2c_5073_264)))
 (let (($x1226027 (= (_ bv0 8) ?x1265604)))
 (let ((?x1267235 (ite $x1226027 (_ bv52 64) ?x1249934)))
 (let ((?x1250152 ((_ extract 207 200) mem_2c_5073_264)))
 (let (($x1267384 (= (_ bv0 8) ?x1250152)))
 (let ((?x1267448 (ite $x1267384 (_ bv51 64) ?x1267235)))
 (let ((?x1267382 ((_ extract 215 208) mem_2c_5073_264)))
 (let (($x1267383 (= (_ bv0 8) ?x1267382)))
 (let ((?x1267449 (ite $x1267383 (_ bv50 64) ?x1267448)))
 (let ((?x1267375 ((_ extract 223 216) mem_2c_5073_264)))
 (let (($x1249904 (= (_ bv0 8) ?x1267375)))
 (let ((?x1267450 (ite $x1249904 (_ bv49 64) ?x1267449)))
 (let ((?x897595 ((_ extract 231 224) mem_2c_5073_264)))
 (let (($x1267369 (= (_ bv0 8) ?x897595)))
 (let ((?x1267451 (ite $x1267369 (_ bv48 64) ?x1267450)))
 (let ((?x1265610 ((_ extract 239 232) mem_2c_5073_264)))
 (let (($x1067573 (= (_ bv0 8) ?x1265610)))
 (let ((?x1267452 (ite $x1067573 (_ bv47 64) ?x1267451)))
 (let ((?x1250005 ((_ extract 247 240) mem_2c_5073_264)))
 (let (($x1267298 (= (_ bv0 8) ?x1250005)))
 (let ((?x1267454 (ite $x1267298 (_ bv46 64) ?x1267452)))
 (let ((?x1267352 ((_ extract 255 248) mem_2c_5073_264)))
 (let (($x1250251 (= (_ bv0 8) ?x1267352)))
 (let ((?x1267455 (ite $x1250251 (_ bv45 64) ?x1267454)))
 (let ((?x1065457 ((_ extract 263 256) mem_2c_5073_264)))
 (let (($x1250191 (= (_ bv0 8) ?x1065457)))
 (let ((?x1267456 (ite $x1250191 (_ bv44 64) ?x1267455)))
 (= ?x1267456 ?x1267557)))))))))))))))))))))))))))))))))))))))))))))))))))))))))))))))))))))))))))))))))))))))))))))))))))
(assert
 (let ((?x1288938 ((_ extract 63 5) strlen_5074_64)))
 (= (_ bv0 59) ?x1288938)))
(maximize mem_2c_5073_264)
(minimize mem_7fffffffffeefa0_293_64)
(maximize syscall_stub_newfstatat_187_64)
(minimize syscall_stub_newfstatat_119_64)
(minimize strlen_85_64)
(minimize access_3089_32)
(minimize mem_7fffffffffeefc8_390_64)
(maximize strlen_842_64)
(maximize strlen_5074_64)
(maximize strlen_83_64)
(maximize syscall_stub_ioctl_94_32)
(minimize mem_7fffffffffef038_272_64)
(minimize strlen_83_64)
(minimize syscall_stub_newfstatat_187_64)
(minimize strncmp_ret_84_32)
(maximize args_1_8)
(minimize strlen_842_64)
(minimize mem_7fffffffffeefa8_273_64)
(minimize mem_7fffffffffef420_168_64)
(minimize mem_7fffffffffef048_341_32)
(minimize args_1_8)
(maximize mem_7fffffffffef038_272_64)
(maximize mem_7fffffffffeefc8_390_64)
(maximize mem_7fffffffffef420_168_64)
(maximize syscall_stub_readlink_158_64)
(maximize mem_7fffffffffef048_341_32)
(minimize syscall_stub_readlink_158_64)
(maximize access_2116_32)
(maximize syscall_stub_newfstatat_119_64)
(minimize access_2116_32)
(maximize mem_7fffffffffef030_294_64)
(maximize strncmp_ret_84_32)
(maximize strlen_85_64)
(maximize mem_7fffffffffeefa0_293_64)
(minimize mem_7fffffffffef030_294_64)
(maximize mem_7fffffffffef058_391_64)
(maximize mem_7fffffffffeefa8_273_64)
(minimize strlen_5074_64)
(minimize syscall_stub_ioctl_94_32)
(minimize mem_2c_5073_264)
(maximize filesize_file_0_/proc/self/loginuid_88_64)
(minimize strncmp_ret_86_32)
(maximize strncmp_ret_86_32)
(minimize filesize_file_0_/proc/self/loginuid_88_64)
(minimize mem_7fffffffffef058_391_64)
(check-sat)
(get-objectives)
